NAME: PointSet_Angle_5_9
TYPE: TSP
COMMENT: Points chosen discrete uniformly at random out of ${0, \ldots, 500}^2$.
DIMENSION: 5
EDGE_WEIGHT_TYPE: EUC_2D
NODE_COORD_SECTION
1 280 476
2 181 10
3 80 35
4 317 430
5 131 491
EOF
